c File: data_files/evolved_graphs/g0173.col
c
c Auto generated graph
c
p edge 100 1782
e 1 3
e 1 10
e 1 11
e 1 12
e 1 13
e 1 20
e 1 25
e 1 27
e 1 28
e 1 30
e 1 31
e 1 32
e 1 33
e 1 34
e 1 35
e 1 36
e 1 37
e 1 38
e 1 39
e 1 40
e 1 42
e 1 43
e 1 44
e 1 45
e 1 50
e 1 51
e 1 52
e 1 53
e 1 54
e 1 56
e 1 57
e 1 58
e 1 59
e 1 60
e 1 61
e 1 63
e 1 64
e 1 65
e 1 66
e 1 67
e 1 68
e 1 69
e 1 70
e 1 71
e 1 72
e 1 73
e 1 74
e 1 75
e 1 76
e 1 77
e 1 78
e 1 79
e 1 81
e 1 82
e 1 83
e 1 84
e 1 85
e 1 86
e 1 87
e 1 88
e 1 89
e 1 90
e 1 91
e 1 92
e 1 93
e 1 94
e 1 95
e 1 96
e 1 97
e 1 98
e 1 99
e 1 100
e 2 3
e 2 4
e 2 10
e 2 11
e 2 12
e 2 13
e 2 14
e 2 18
e 2 25
e 2 26
e 2 27
e 2 28
e 2 29
e 2 30
e 2 31
e 2 32
e 2 33
e 2 34
e 2 35
e 2 36
e 2 38
e 2 40
e 2 41
e 2 43
e 2 46
e 2 47
e 2 50
e 2 52
e 2 54
e 2 55
e 2 56
e 2 58
e 2 59
e 2 60
e 2 61
e 2 62
e 2 64
e 2 65
e 2 66
e 2 67
e 2 68
e 2 70
e 2 71
e 2 72
e 2 73
e 2 74
e 2 75
e 2 76
e 2 77
e 2 78
e 2 79
e 2 80
e 2 81
e 2 82
e 2 83
e 2 84
e 2 85
e 2 86
e 2 88
e 2 89
e 2 90
e 2 91
e 2 92
e 2 93
e 2 94
e 2 95
e 2 96
e 2 98
e 2 99
e 2 100
e 3 5
e 3 13
e 3 14
e 3 18
e 3 19
e 3 25
e 3 26
e 3 27
e 3 28
e 3 30
e 3 31
e 3 32
e 3 33
e 3 34
e 3 36
e 3 37
e 3 38
e 3 39
e 3 40
e 3 41
e 3 42
e 3 43
e 3 44
e 3 45
e 3 46
e 3 47
e 3 48
e 3 50
e 3 51
e 3 52
e 3 53
e 3 54
e 3 55
e 3 56
e 3 57
e 3 58
e 3 59
e 3 60
e 3 61
e 3 62
e 3 63
e 3 64
e 3 65
e 3 66
e 3 67
e 3 68
e 3 70
e 3 71
e 3 72
e 3 73
e 3 74
e 3 75
e 3 83
e 3 84
e 3 93
e 3 94
e 3 96
e 3 97
e 3 98
e 3 100
e 4 11
e 4 12
e 4 13
e 4 17
e 4 18
e 4 25
e 4 26
e 4 27
e 4 28
e 4 29
e 4 30
e 4 31
e 4 32
e 4 33
e 4 34
e 4 35
e 4 36
e 4 37
e 4 38
e 4 39
e 4 41
e 4 42
e 4 43
e 4 44
e 4 45
e 4 46
e 4 48
e 4 49
e 4 50
e 4 51
e 4 52
e 4 53
e 4 54
e 4 55
e 4 56
e 4 57
e 4 58
e 4 59
e 4 61
e 4 62
e 4 63
e 4 64
e 4 66
e 4 67
e 4 72
e 4 73
e 4 74
e 4 75
e 4 76
e 4 80
e 4 82
e 4 83
e 4 85
e 4 90
e 4 93
e 4 95
e 4 98
e 4 99
e 5 7
e 5 11
e 5 12
e 5 13
e 5 14
e 5 19
e 5 25
e 5 26
e 5 27
e 5 28
e 5 29
e 5 30
e 5 31
e 5 32
e 5 33
e 5 34
e 5 35
e 5 36
e 5 37
e 5 38
e 5 39
e 5 40
e 5 41
e 5 42
e 5 43
e 5 44
e 5 46
e 5 47
e 5 48
e 5 49
e 5 50
e 5 51
e 5 52
e 5 53
e 5 54
e 5 55
e 5 56
e 5 57
e 5 58
e 5 59
e 5 60
e 5 61
e 5 62
e 5 63
e 5 64
e 5 65
e 5 66
e 5 67
e 5 89
e 5 93
e 5 97
e 5 98
e 5 99
e 5 100
e 6 14
e 6 16
e 6 18
e 6 20
e 6 26
e 6 27
e 6 28
e 6 29
e 6 30
e 6 31
e 6 32
e 6 33
e 6 34
e 6 35
e 6 36
e 6 37
e 6 38
e 6 39
e 6 40
e 6 41
e 6 42
e 6 43
e 6 44
e 6 45
e 6 46
e 6 47
e 6 48
e 6 49
e 6 50
e 6 51
e 6 52
e 6 53
e 6 54
e 6 55
e 6 56
e 6 57
e 6 58
e 6 59
e 6 60
e 6 61
e 6 62
e 6 63
e 6 64
e 6 65
e 6 66
e 6 67
e 6 68
e 6 79
e 6 83
e 6 85
e 6 86
e 6 91
e 6 92
e 6 94
e 6 95
e 6 96
e 6 97
e 6 98
e 6 100
e 7 14
e 7 25
e 7 26
e 7 27
e 7 28
e 7 29
e 7 30
e 7 31
e 7 32
e 7 33
e 7 34
e 7 35
e 7 36
e 7 37
e 7 38
e 7 40
e 7 41
e 7 42
e 7 43
e 7 44
e 7 45
e 7 46
e 7 47
e 7 48
e 7 49
e 7 50
e 7 51
e 7 52
e 7 53
e 7 54
e 7 55
e 7 56
e 7 57
e 7 58
e 7 59
e 7 60
e 7 61
e 7 62
e 7 63
e 7 64
e 7 65
e 7 66
e 7 67
e 7 69
e 7 76
e 7 77
e 7 78
e 7 84
e 7 85
e 7 95
e 7 96
e 7 97
e 7 98
e 7 99
e 8 9
e 8 14
e 8 19
e 8 25
e 8 26
e 8 27
e 8 28
e 8 29
e 8 30
e 8 31
e 8 32
e 8 33
e 8 34
e 8 35
e 8 36
e 8 37
e 8 38
e 8 39
e 8 41
e 8 42
e 8 43
e 8 44
e 8 45
e 8 46
e 8 47
e 8 48
e 8 49
e 8 50
e 8 51
e 8 52
e 8 53
e 8 55
e 8 56
e 8 57
e 8 59
e 8 60
e 8 61
e 8 62
e 8 63
e 8 65
e 8 66
e 8 67
e 8 69
e 8 77
e 8 80
e 8 83
e 8 88
e 8 92
e 8 93
e 8 96
e 8 97
e 8 98
e 8 100
e 9 14
e 9 17
e 9 22
e 9 25
e 9 26
e 9 27
e 9 28
e 9 29
e 9 30
e 9 31
e 9 32
e 9 33
e 9 34
e 9 35
e 9 36
e 9 37
e 9 38
e 9 40
e 9 41
e 9 42
e 9 43
e 9 44
e 9 45
e 9 46
e 9 47
e 9 48
e 9 49
e 9 50
e 9 51
e 9 52
e 9 53
e 9 54
e 9 55
e 9 56
e 9 57
e 9 58
e 9 59
e 9 60
e 9 61
e 9 62
e 9 63
e 9 64
e 9 66
e 9 69
e 9 77
e 9 78
e 9 85
e 9 86
e 9 95
e 9 96
e 9 97
e 9 99
e 9 100
e 10 14
e 10 15
e 10 20
e 10 25
e 10 27
e 10 28
e 10 29
e 10 30
e 10 31
e 10 32
e 10 33
e 10 34
e 10 35
e 10 36
e 10 37
e 10 38
e 10 39
e 10 40
e 10 41
e 10 42
e 10 43
e 10 44
e 10 45
e 10 46
e 10 47
e 10 48
e 10 49
e 10 50
e 10 51
e 10 52
e 10 53
e 10 54
e 10 55
e 10 56
e 10 57
e 10 58
e 10 59
e 10 60
e 10 61
e 10 62
e 10 63
e 10 64
e 10 65
e 10 66
e 10 67
e 10 78
e 10 81
e 10 88
e 10 89
e 10 90
e 10 93
e 10 94
e 10 97
e 10 98
e 10 100
e 11 14
e 11 17
e 11 25
e 11 26
e 11 27
e 11 28
e 11 29
e 11 30
e 11 31
e 11 32
e 11 33
e 11 34
e 11 35
e 11 36
e 11 37
e 11 38
e 11 40
e 11 41
e 11 42
e 11 43
e 11 44
e 11 45
e 11 46
e 11 47
e 11 48
e 11 49
e 11 50
e 11 51
e 11 52
e 11 53
e 11 54
e 11 55
e 11 56
e 11 57
e 11 58
e 11 59
e 11 60
e 11 61
e 11 62
e 11 63
e 11 64
e 11 65
e 11 66
e 11 75
e 11 78
e 11 80
e 11 86
e 11 89
e 11 91
e 11 93
e 11 94
e 11 96
e 11 97
e 11 98
e 11 100
e 12 14
e 12 16
e 12 24
e 12 25
e 12 26
e 12 27
e 12 28
e 12 29
e 12 30
e 12 31
e 12 32
e 12 33
e 12 34
e 12 35
e 12 36
e 12 37
e 12 38
e 12 39
e 12 40
e 12 41
e 12 42
e 12 43
e 12 44
e 12 45
e 12 46
e 12 47
e 12 49
e 12 50
e 12 51
e 12 52
e 12 53
e 12 54
e 12 55
e 12 56
e 12 57
e 12 58
e 12 59
e 12 60
e 12 61
e 12 62
e 12 63
e 12 64
e 12 65
e 12 66
e 12 75
e 12 78
e 12 80
e 12 87
e 12 93
e 12 95
e 12 96
e 12 98
e 12 100
e 13 14
e 13 18
e 13 20
e 13 24
e 13 25
e 13 26
e 13 27
e 13 28
e 13 29
e 13 30
e 13 31
e 13 32
e 13 33
e 13 34
e 13 35
e 13 36
e 13 37
e 13 38
e 13 41
e 13 42
e 13 43
e 13 44
e 13 45
e 13 46
e 13 47
e 13 48
e 13 49
e 13 50
e 13 51
e 13 52
e 13 53
e 13 54
e 13 55
e 13 56
e 13 57
e 13 58
e 13 59
e 13 60
e 13 61
e 13 63
e 13 64
e 13 65
e 13 66
e 13 67
e 13 78
e 13 84
e 13 87
e 13 88
e 13 94
e 13 96
e 13 97
e 13 98
e 13 100
e 14 25
e 14 26
e 14 27
e 14 28
e 14 29
e 14 30
e 14 31
e 14 32
e 14 33
e 14 34
e 14 35
e 14 36
e 14 37
e 14 38
e 14 39
e 14 40
e 14 41
e 14 42
e 14 43
e 14 44
e 14 45
e 14 46
e 14 47
e 14 48
e 14 49
e 14 50
e 14 51
e 14 52
e 14 53
e 14 54
e 14 55
e 14 56
e 14 57
e 14 58
e 14 59
e 14 60
e 14 61
e 14 62
e 14 63
e 14 64
e 14 65
e 14 66
e 14 67
e 14 86
e 14 89
e 14 93
e 14 94
e 14 95
e 14 96
e 14 97
e 14 98
e 14 100
e 15 22
e 15 25
e 15 27
e 15 28
e 15 29
e 15 30
e 15 31
e 15 32
e 15 33
e 15 34
e 15 35
e 15 36
e 15 37
e 15 38
e 15 41
e 15 42
e 15 43
e 15 44
e 15 45
e 15 46
e 15 47
e 15 48
e 15 49
e 15 50
e 15 51
e 15 52
e 15 53
e 15 54
e 15 56
e 15 57
e 15 58
e 15 59
e 15 60
e 15 61
e 15 62
e 15 63
e 15 64
e 15 65
e 15 66
e 15 67
e 15 75
e 15 85
e 15 90
e 15 93
e 15 95
e 15 96
e 15 97
e 15 99
e 15 100
e 16 25
e 16 26
e 16 27
e 16 28
e 16 29
e 16 30
e 16 31
e 16 32
e 16 33
e 16 34
e 16 35
e 16 36
e 16 37
e 16 38
e 16 41
e 16 42
e 16 43
e 16 44
e 16 45
e 16 46
e 16 47
e 16 48
e 16 49
e 16 50
e 16 51
e 16 52
e 16 53
e 16 54
e 16 55
e 16 56
e 16 57
e 16 58
e 16 59
e 16 60
e 16 61
e 16 62
e 16 63
e 16 64
e 16 65
e 16 66
e 16 67
e 16 79
e 16 81
e 16 89
e 16 92
e 16 93
e 16 94
e 16 95
e 16 96
e 16 98
e 16 99
e 16 100
e 17 18
e 17 25
e 17 26
e 17 27
e 17 28
e 17 29
e 17 30
e 17 31
e 17 32
e 17 33
e 17 34
e 17 36
e 17 37
e 17 38
e 17 40
e 17 41
e 17 42
e 17 43
e 17 44
e 17 45
e 17 46
e 17 47
e 17 48
e 17 49
e 17 50
e 17 52
e 17 53
e 17 54
e 17 55
e 17 56
e 17 57
e 17 58
e 17 59
e 17 60
e 17 61
e 17 62
e 17 63
e 17 64
e 17 65
e 17 66
e 17 67
e 17 70
e 17 77
e 17 79
e 17 82
e 17 87
e 17 93
e 17 95
e 17 96
e 17 98
e 17 99
e 17 100
e 18 25
e 18 26
e 18 27
e 18 28
e 18 29
e 18 30
e 18 31
e 18 32
e 18 33
e 18 34
e 18 35
e 18 36
e 18 37
e 18 38
e 18 39
e 18 41
e 18 42
e 18 43
e 18 44
e 18 45
e 18 46
e 18 47
e 18 48
e 18 49
e 18 50
e 18 51
e 18 52
e 18 53
e 18 54
e 18 55
e 18 56
e 18 57
e 18 58
e 18 59
e 18 60
e 18 62
e 18 63
e 18 64
e 18 65
e 18 66
e 18 67
e 18 68
e 18 74
e 18 81
e 18 86
e 18 93
e 18 94
e 18 95
e 18 96
e 18 98
e 18 99
e 18 100
e 19 25
e 19 26
e 19 27
e 19 28
e 19 29
e 19 30
e 19 31
e 19 32
e 19 33
e 19 34
e 19 35
e 19 37
e 19 38
e 19 39
e 19 40
e 19 41
e 19 42
e 19 43
e 19 44
e 19 45
e 19 46
e 19 47
e 19 48
e 19 49
e 19 50
e 19 51
e 19 52
e 19 53
e 19 54
e 19 55
e 19 56
e 19 57
e 19 58
e 19 59
e 19 60
e 19 61
e 19 62
e 19 63
e 19 64
e 19 65
e 19 66
e 19 69
e 19 75
e 19 76
e 19 80
e 19 82
e 19 90
e 19 94
e 19 100
e 20 25
e 20 26
e 20 27
e 20 28
e 20 29
e 20 30
e 20 31
e 20 32
e 20 33
e 20 34
e 20 35
e 20 36
e 20 37
e 20 38
e 20 40
e 20 41
e 20 42
e 20 43
e 20 44
e 20 45
e 20 46
e 20 47
e 20 48
e 20 49
e 20 50
e 20 51
e 20 52
e 20 53
e 20 54
e 20 55
e 20 56
e 20 57
e 20 58
e 20 59
e 20 60
e 20 61
e 20 62
e 20 63
e 20 64
e 20 65
e 20 67
e 20 69
e 20 71
e 20 72
e 20 73
e 20 74
e 20 84
e 20 87
e 20 92
e 20 94
e 20 95
e 20 96
e 20 97
e 20 98
e 20 99
e 21 25
e 21 26
e 21 27
e 21 28
e 21 29
e 21 30
e 21 31
e 21 32
e 21 33
e 21 34
e 21 35
e 21 36
e 21 37
e 21 38
e 21 39
e 21 40
e 21 41
e 21 42
e 21 43
e 21 44
e 21 45
e 21 46
e 21 47
e 21 48
e 21 49
e 21 50
e 21 51
e 21 52
e 21 53
e 21 54
e 21 55
e 21 56
e 21 57
e 21 59
e 21 60
e 21 61
e 21 62
e 21 63
e 21 64
e 21 65
e 21 66
e 21 67
e 21 68
e 21 69
e 21 70
e 21 71
e 21 72
e 21 73
e 21 74
e 21 77
e 21 88
e 21 95
e 21 97
e 21 99
e 21 100
e 22 25
e 22 26
e 22 27
e 22 28
e 22 29
e 22 30
e 22 31
e 22 32
e 22 33
e 22 34
e 22 35
e 22 36
e 22 37
e 22 38
e 22 39
e 22 40
e 22 41
e 22 42
e 22 43
e 22 44
e 22 45
e 22 46
e 22 47
e 22 48
e 22 49
e 22 50
e 22 51
e 22 52
e 22 53
e 22 54
e 22 55
e 22 56
e 22 57
e 22 58
e 22 59
e 22 60
e 22 61
e 22 62
e 22 63
e 22 64
e 22 65
e 22 66
e 22 67
e 22 68
e 22 69
e 22 71
e 22 72
e 22 87
e 22 93
e 22 95
e 22 100
e 23 25
e 23 26
e 23 27
e 23 28
e 23 29
e 23 39
e 23 40
e 23 41
e 23 42
e 23 43
e 23 44
e 23 45
e 23 47
e 23 48
e 23 49
e 23 50
e 23 51
e 23 52
e 23 53
e 23 54
e 23 55
e 23 56
e 23 57
e 23 58
e 23 59
e 23 60
e 23 61
e 23 62
e 23 63
e 23 64
e 23 65
e 23 66
e 23 67
e 23 69
e 23 70
e 23 71
e 23 72
e 23 73
e 23 74
e 23 86
e 23 87
e 23 90
e 23 92
e 23 94
e 23 96
e 23 99
e 23 100
e 24 25
e 24 26
e 24 27
e 24 28
e 24 29
e 24 31
e 24 39
e 24 41
e 24 42
e 24 43
e 24 44
e 24 45
e 24 46
e 24 47
e 24 48
e 24 49
e 24 50
e 24 51
e 24 52
e 24 53
e 24 54
e 24 55
e 24 56
e 24 57
e 24 59
e 24 60
e 24 61
e 24 62
e 24 63
e 24 64
e 24 65
e 24 66
e 24 67
e 24 94
e 24 95
e 24 96
e 24 97
e 24 98
e 25 39
e 25 40
e 25 76
e 25 82
e 25 84
e 25 87
e 25 94
e 25 95
e 25 96
e 25 97
e 25 98
e 26 32
e 26 34
e 26 39
e 26 40
e 26 70
e 26 75
e 26 77
e 26 80
e 26 89
e 26 91
e 26 92
e 26 93
e 26 94
e 26 95
e 26 96
e 26 97
e 26 99
e 27 36
e 27 38
e 27 39
e 27 40
e 27 79
e 27 81
e 27 85
e 27 92
e 27 93
e 27 97
e 27 98
e 27 99
e 28 30
e 28 35
e 28 36
e 28 39
e 28 40
e 28 87
e 28 94
e 28 95
e 28 96
e 28 98
e 28 99
e 28 100
e 29 31
e 29 40
e 29 70
e 29 77
e 29 86
e 29 92
e 29 93
e 29 97
e 29 99
e 30 39
e 30 54
e 30 80
e 30 82
e 30 88
e 30 91
e 30 96
e 30 98
e 31 40
e 31 78
e 31 80
e 31 86
e 31 90
e 31 91
e 31 93
e 31 94
e 31 95
e 31 96
e 31 97
e 31 100
e 32 39
e 32 40
e 32 69
e 32 76
e 32 84
e 32 94
e 32 96
e 32 98
e 32 100
e 33 40
e 33 70
e 33 90
e 33 91
e 33 93
e 33 100
e 34 40
e 34 86
e 34 90
e 34 96
e 34 98
e 34 100
e 35 39
e 35 75
e 35 81
e 35 82
e 35 88
e 35 93
e 35 95
e 36 80
e 36 83
e 36 88
e 36 93
e 36 96
e 36 98
e 37 75
e 37 77
e 37 82
e 37 84
e 37 93
e 37 96
e 37 99
e 37 100
e 38 39
e 38 40
e 38 77
e 38 80
e 38 83
e 38 86
e 38 87
e 38 93
e 38 95
e 38 96
e 38 98
e 38 100
e 39 62
e 39 64
e 39 65
e 39 67
e 39 68
e 39 76
e 39 85
e 39 91
e 39 93
e 40 62
e 40 63
e 40 64
e 40 65
e 40 66
e 40 67
e 40 73
e 40 83
e 40 91
e 40 98
e 41 64
e 41 66
e 41 69
e 41 72
e 41 81
e 41 84
e 41 87
e 41 92
e 42 64
e 42 66
e 42 78
e 42 82
e 42 88
e 42 98
e 43 66
e 43 67
e 43 93
e 43 97
e 44 63
e 44 66
e 44 67
e 44 78
e 44 82
e 44 83
e 44 84
e 44 89
e 44 93
e 44 97
e 45 65
e 45 69
e 45 70
e 45 74
e 45 76
e 45 82
e 45 92
e 45 99
e 46 62
e 46 64
e 46 66
e 46 67
e 46 91
e 46 99
e 47 63
e 47 64
e 47 65
e 47 74
e 47 97
e 47 99
e 48 62
e 48 63
e 48 65
e 48 66
e 48 69
e 48 70
e 48 97
e 49 62
e 49 63
e 49 64
e 49 65
e 49 67
e 49 76
e 49 87
e 49 90
e 50 62
e 50 65
e 50 66
e 50 67
e 50 81
e 50 93
e 51 62
e 51 63
e 51 65
e 51 66
e 51 67
e 51 87
e 51 96
e 52 63
e 52 64
e 52 67
e 52 69
e 52 76
e 52 89
e 53 63
e 53 64
e 53 79
e 53 86
e 53 90
e 53 95
e 54 55
e 54 62
e 54 64
e 54 65
e 54 97
e 54 99
e 55 74
e 55 78
e 55 80
e 55 85
e 55 87
e 55 97
e 56 63
e 56 64
e 56 70
e 56 73
e 56 76
e 56 81
e 56 91
e 56 95
e 56 96
e 57 62
e 57 63
e 57 64
e 57 65
e 57 66
e 57 68
e 57 69
e 57 70
e 57 76
e 57 82
e 57 84
e 57 87
e 58 63
e 58 64
e 58 65
e 58 66
e 58 86
e 58 90
e 58 92
e 59 64
e 59 65
e 59 66
e 59 84
e 59 87
e 59 94
e 60 65
e 60 66
e 60 83
e 60 85
e 60 95
e 60 96
e 60 97
e 61 63
e 61 64
e 61 90
e 61 91
e 61 93
e 61 96
e 62 78
e 62 79
e 62 80
e 62 81
e 62 82
e 62 84
e 62 87
e 62 89
e 62 96
e 62 98
e 63 78
e 63 79
e 63 80
e 63 81
e 63 82
e 63 84
e 63 89
e 63 90
e 63 95
e 63 100
e 64 78
e 64 79
e 64 80
e 64 81
e 64 82
e 64 84
e 64 88
e 64 90
e 64 91
e 64 93
e 64 100
e 65 78
e 65 79
e 65 80
e 65 81
e 65 82
e 65 84
e 65 87
e 65 94
e 65 95
e 66 78
e 66 79
e 66 80
e 66 81
e 66 82
e 66 84
e 66 95
e 66 100
e 67 78
e 67 79
e 67 81
e 67 82
e 67 83
e 67 84
e 67 87
e 68 78
e 68 79
e 68 80
e 68 81
e 68 82
e 68 84
e 68 89
e 69 78
e 69 79
e 69 80
e 69 81
e 69 82
e 69 83
e 69 84
e 69 87
e 69 92
e 69 100
e 70 78
e 70 79
e 70 80
e 70 81
e 70 82
e 70 83
e 70 86
e 70 94
e 70 96
e 71 78
e 71 79
e 71 80
e 71 81
e 71 82
e 71 84
e 71 86
e 71 98
e 72 78
e 72 79
e 72 80
e 72 81
e 72 88
e 72 89
e 72 91
e 72 95
e 72 96
e 72 100
e 73 78
e 73 79
e 73 80
e 73 81
e 73 82
e 73 87
e 73 90
e 73 96
e 73 100
e 74 78
e 74 79
e 74 80
e 74 81
e 74 82
e 74 84
e 74 87
e 74 91
e 74 92
e 74 97
e 74 100
e 75 78
e 75 79
e 75 80
e 75 81
e 75 82
e 75 87
e 75 89
e 75 94
e 75 98
e 75 99
e 75 100
e 76 78
e 76 79
e 76 80
e 76 81
e 76 82
e 76 94
e 76 99
e 77 78
e 77 79
e 77 80
e 77 81
e 77 82
e 77 83
e 77 84
e 77 92
e 77 94
e 77 100
e 78 83
e 78 84
e 78 93
e 79 83
e 79 84
e 79 96
e 80 83
e 80 84
e 80 89
e 80 91
e 80 92
e 80 93
e 81 83
e 81 84
e 81 85
e 81 86
e 81 88
e 82 83
e 82 84
e 82 87
e 82 92
e 83 97
e 83 98
e 83 99
e 83 100
e 84 97
e 84 98
e 84 99
e 85 96
e 86 94
e 89 91
e 90 100
e 91 96
